 &GLOBAL
   PRINT_LEVEL  LOW
   PROJECT_NAME intE01_aq
   RUN_TYPE  GEO_OPT
   WALLTIME 71:45:00
 &END GLOBAL
 &MOTION
   &GEO_OPT
     TYPE  MINIMIZATION
     OPTIMIZER  BFGS
     MAX_ITER  2000
     MAX_DR     5.0000000000000001E-04
     MAX_FORCE     5.0000000000000002E-05
     RMS_DR     5.0000000000000001E-04
     RMS_FORCE     5.0000000000000002E-05
     STEP_START_VAL  0
     &BFGS
       TRUST_RADIUS     2.5000000000000006E-01
     &END BFGS
   &END GEO_OPT
   &CONSTRAINT
		&FIXED_ATOMS
			COMPONENTS_TO_FIX  XYZ
			LIST 1..579 592..648
		&END FIXED_ATOMS
#		&FIXED_ATOMS
#			COMPONENTS_TO_FIX  XYZ
#			LIST 
#		&END FIXED_ATOMS
   &END CONSTRAINT
 &END MOTION
 &FORCE_EVAL
   METHOD  QS
   STRESS_TENSOR  ANALYTICAL
   &DFT
     BASIS_SET_FILE_NAME BASIS_file
     POTENTIAL_FILE_NAME POTENTIALS_file
     UKS  F
     MULTIPLICITY  1
     CHARGE  0
     &SCF
       MAX_SCF  500
       EPS_SCF     9.9999999999999995E-07
       SCF_GUESS  RESTART
       &OT  T
         MINIMIZER  CG
         PRECONDITIONER  FULL_ALL
         ENERGY_GAP     1.0000000000000000E-03
       &END OT
       &OUTER_SCF  T
         EPS_SCF     9.9999999999999995E-07
         MAX_SCF  50
       &END OUTER_SCF
     &END SCF
     &QS
       EPS_DEFAULT     1.0000000000000000E-10
       METHOD  GPW
     &END QS
     &MGRID
       NGRIDS  5
       CUTOFF     3.6000000000000000E+02
       REL_CUTOFF     8.0000000000000000E+01
     &END MGRID
     &XC
       DENSITY_CUTOFF     1.0000000000000000E-10
       GRADIENT_CUTOFF     1.0000000000000000E-10
       TAU_CUTOFF     1.0000000000000000E-10
       &XC_FUNCTIONAL  NO_SHORTCUT
         &PBE  T
         &END PBE
       &END XC_FUNCTIONAL
       &VDW_POTENTIAL
         POTENTIAL_TYPE  PAIR_POTENTIAL
         &PAIR_POTENTIAL
           TYPE  DFTD3(BJ)
           PARAMETER_FILE_NAME dftd3.dat
           REFERENCE_FUNCTIONAL PBE
           CALCULATE_C9_TERM  F
         &END PAIR_POTENTIAL
       &END VDW_POTENTIAL
     &END XC
   &END DFT
   &SUBSYS
     &CELL
		A                24.43300000    0.00000000    0.00000000
		B                 0.00000000   24.43300000    0.00000000
		C                 0.00000000    0.00000000   24.43300000
       MULTIPLE_UNIT_CELL  1 1 1
     &END CELL
	 &KIND Si
		BASIS_SET DZVP-MOLOPT-SR-GTH-q4
		POTENTIAL GTH-PBE-q4
	 &END KIND 
     &KIND O
       BASIS_SET DZVP-MOLOPT-SR-GTH-q6
       POTENTIAL GTH-PBE-q6
     &END KIND
	 &KIND Ti
       BASIS_SET DZVP-MOLOPT-SR-GTH-q12
       POTENTIAL GTH-PBE-q12
     &END KIND
	 &KIND H
       BASIS_SET DZVP-MOLOPT-SR-GTH-q1
       POTENTIAL GTH-PBE-q1
     &END KIND
	 &KIND C
       BASIS_SET DZVP-MOLOPT-SR-GTH-q4
       POTENTIAL GTH-PBE-q4
     &END KIND
     &TOPOLOGY
       COORD_FILE_NAME ./intE01_aq.xyz
       COORD_FILE_FORMAT  XYZ
       NUMBER_OF_ATOMS  648
       CONN_FILE_FORMAT  OFF
       MULTIPLE_UNIT_CELL  1 1 1
     &END TOPOLOGY
   &END SUBSYS
   &PRINT
     &FORCES  ON
     &END FORCES
   &END PRINT
 &END FORCE_EVAL
