 # Version information for this restart file 
 # current date 2025-01-28 16:01:12.222
 # current working dir /fs/scratch/PAS2536/xiutinc/386233.adl02_01_02_propanol
 # Program compiled at                              Mon Oct 14 13:01:09 EDT 2024
 # Program compiled on                                 cardinal-rw02.ten.osc.edu
 # Program compiled for                           linux-rhel9-sapphirerapids-gcc
 # Source code revision number                                       git:65cca6c
 &GLOBAL
   PRINT_LEVEL LOW
   PROJECT_NAME "intE04_aq"
   RUN_TYPE GEO_OPT
   WALLTIME 71:45:00
 &END GLOBAL
 &MOTION
   &GEO_OPT
     TYPE MINIMIZATION
     OPTIMIZER BFGS
     MAX_ITER 2000
     MAX_DR  5.0000000000000001E-004
     MAX_FORCE  5.0000000000000002E-005
     RMS_DR  5.0000000000000001E-004
     RMS_FORCE  5.0000000000000002E-005
     STEP_START_VAL 75
     &BFGS
       TRUST_RADIUS  2.5000000000000006E-001
     &END BFGS
   &END GEO_OPT
   &CONSTRAINT
     &FIXED_ATOMS
       COMPONENTS_TO_FIX XYZ
       LIST 1..579 592..651
     &END FIXED_ATOMS
   &END CONSTRAINT
 &END MOTION
 &FORCE_EVAL
   METHOD QS
   STRESS_TENSOR ANALYTICAL
   &DFT
     BASIS_SET_FILE_NAME BASIS_file
     POTENTIAL_FILE_NAME POTENTIALS_file
     UKS F
     MULTIPLICITY 1
     CHARGE 0
     &SCF
       MAX_SCF 500
       EPS_SCF  9.9999999999999995E-007
       SCF_GUESS RESTART
       &OT T
         MINIMIZER CG
         PRECONDITIONER FULL_ALL
         ENERGY_GAP  1.0000000000000000E-003
       &END OT
       &OUTER_SCF T
         EPS_SCF  9.9999999999999995E-007
         MAX_SCF 50
       &END OUTER_SCF
     &END SCF
     &QS
       EPS_DEFAULT  1.0000000000000000E-010
       METHOD GPW
     &END QS
     &MGRID
       NGRIDS 5
       CUTOFF  3.6000000000000000E+002
       REL_CUTOFF  8.0000000000000000E+001
     &END MGRID
     &XC
       DENSITY_CUTOFF  1.0000000000000000E-010
       GRADIENT_CUTOFF  1.0000000000000000E-010
       TAU_CUTOFF  1.0000000000000000E-010
       &XC_FUNCTIONAL NO_SHORTCUT
         &PBE T
         &END PBE
       &END XC_FUNCTIONAL
       &VDW_POTENTIAL
         POTENTIAL_TYPE PAIR_POTENTIAL
         &PAIR_POTENTIAL
           TYPE DFTD3(BJ)
           PARAMETER_FILE_NAME dftd3.dat
           REFERENCE_FUNCTIONAL "PBE"
           CALCULATE_C9_TERM F
         &END PAIR_POTENTIAL
       &END VDW_POTENTIAL
     &END XC
   &END DFT
   &SUBSYS
     &CELL
       A  2.4433000000000000E+001  0.0000000000000000E+000  0.0000000000000000E+000
       B  0.0000000000000000E+000  2.4433000000000000E+001  0.0000000000000000E+000
       C  0.0000000000000000E+000  0.0000000000000000E+000  2.4433000000000000E+001
       MULTIPLE_UNIT_CELL 1 1 1
     &END CELL
     &COORD
       Ti  1.0649898000000000E+001  1.5290196999999999E+001  1.2942351000000000E+001
       Si  1.9613140000000001E+001  3.0436300000000003E+000  9.6928000000000003E-001
       Si  2.1389220000000005E+001  1.2884700000000002E+000  7.0773300000000008E+000
       Si  1.9613040000000002E+001  3.0648700000000000E+000  5.2978199999999998E+000
       Si  2.1368120000000005E+001  1.2885400000000000E+000  1.1405939999999999E+001
       Si  1.7435070000000000E+001  7.3966200000000004E+000  3.1439100000000000E+000
       Si  1.7036260000000002E+001  2.3543370000000003E+001  9.2522600000000015E+000
       Si  1.7434899999999999E+001  2.3144629999999999E+001  3.1229100000000001E+000
       Si  1.2882800000000001E+000  2.3543520000000001E+001  9.2308600000000016E+000
       Si  3.0646000000000000E+000  8.9046000000000014E-001  1.1007250000000001E+001
       Si  6.9981499999999999E+000  2.1389350000000000E+001  1.3678500000000002E+000
       Si  3.0459100000000001E+000  1.3108779999999999E+001  7.4632600000000000E+000
       Si  2.3543180000000003E+001  9.1518499999999996E+000  1.3679000000000001E+000
       Si  3.0436800000000002E+000  5.2185800000000002E+000  1.1007400000000001E+001
       Si  1.1329770000000002E+001  9.1747600000000009E+000  4.9035700000000011E+000
       Si  1.2878200000000000E+000  2.1368520000000000E+001  1.1405780000000000E+001
       Si  3.0646599999999999E+000  1.9613450000000004E+001  5.2969900000000010E+000
       Si  1.2883199999999999E+000  2.1389620000000001E+001  7.0769300000000008E+000
       Si  3.0436399999999999E+000  1.9613070000000000E+001  9.6919000000000000E-001
       Si  2.3542880000000000E+001  1.2886299999999999E+000  9.2311499999999995E+000
       Si  2.3144539999999999E+001  1.7434729999999998E+001  3.1230000000000002E+000
       Si  2.3542770000000001E+001  1.7035860000000000E+001  9.2519600000000004E+000
       Si  7.3970400000000005E+000  1.7434610000000003E+001  3.1442500000000004E+000
       Si  9.1527499999999993E+000  6.9991100000000008E+000  4.8995400000000000E+000
       Si  1.7434709999999999E+001  3.0650200000000001E+000  7.4761200000000008E+000
       Si  2.3144629999999999E+001  1.5281070000000000E+001  9.6929000000000010E-001
       Si  2.1367979999999999E+001  1.7036100000000005E+001  7.0773400000000004E+000
       Si  2.3144439999999999E+001  1.5259880000000001E+001  5.2977400000000001E+000
       Si  2.1389060000000001E+001  1.7036100000000005E+001  1.1405980000000001E+001
       Si  8.8983000000000001E-001  1.0928020000000002E+001  3.1439900000000001E+000
       Si  1.2877400000000001E+000  1.9214510000000001E+001  9.2519400000000012E+000
       Si  8.8966999999999996E-001  1.9613090000000003E+001  3.1226800000000003E+000
       Si  1.7045400000000001E+001  1.9221510000000002E+001  9.2274800000000017E+000
       Si  1.5281100000000002E+001  5.2188100000000013E+000  7.4761800000000003E+000
       Si  6.9985099999999996E+000  9.1521000000000008E+000  4.8989900000000004E+000
       Si  4.8189000000000011E+000  9.1732200000000024E+000  1.1404140000000000E+001
       Si  3.0432500000000005E+000  1.0926700000000000E+001  5.2964500000000010E+000
       Si  4.8189599999999997E+000  9.1497600000000006E+000  7.0752300000000004E+000
       Si  3.0648499999999999E+000  1.0928100000000001E+001  9.6953000000000011E-001
       Si  6.9983900000000006E+000  4.8199199999999998E+000  9.2310599999999994E+000
       Si  7.3982300000000008E+000  1.3103999999999999E+001  3.1210399999999998E+000
       Si  6.9738100000000012E+000  1.3515750000000002E+001  9.2613600000000016E+000
       Si  2.3144680000000005E+001  1.3106120000000001E+001  3.1441699999999999E+000
       Si  2.1368290000000002E+001  1.1326650000000001E+001  1.3679600000000001E+000
       Si  1.7435110000000002E+001  1.5259200000000002E+001  1.1007389999999999E+001
       Si  2.1389370000000000E+001  2.3543280000000003E+001  4.8992100000000001E+000
       Si  8.8971000000000000E-001  3.0649800000000003E+000  1.1007440000000001E+001
       Si  2.1389440000000000E+001  6.9981799999999996E+000  1.3679300000000001E+000
       Si  1.3106310000000001E+001  3.0438200000000002E+000  7.4761200000000008E+000
       Si  1.0928070000000000E+001  3.0649000000000006E+000  9.6943000000000001E-001
       Si  9.1519500000000011E+000  4.8201600000000004E+000  7.0772500000000003E+000
       Si  1.0928150000000002E+001  3.0437800000000004E+000  5.2978399999999999E+000
       Si  9.1732600000000009E+000  4.8194699999999999E+000  1.1405490000000000E+001
       Si  1.3106210000000001E+001  2.3144610000000000E+001  3.1440500000000005E+000
       Si  1.3505280000000001E+001  6.9998700000000005E+000  9.2519200000000001E+000
       Si  1.3106080000000000E+001  7.3971700000000009E+000  3.1236199999999998E+000
       Si  4.8199199999999998E+000  6.9979500000000003E+000  9.2307200000000016E+000
       Si  3.0626400000000000E+000  1.7435510000000004E+001  7.4745600000000003E+000
       Si  1.9214790000000001E+001  2.1368359999999999E+001  4.8988800000000010E+000
       Si  1.7036840000000002E+001  2.1389679999999998E+001  1.1405790000000001E+001
       Si  1.5259870000000001E+001  2.3144950000000005E+001  5.2975800000000008E+000
       Si  1.7036840000000002E+001  2.1369969999999999E+001  7.0760199999999998E+000
       Si  1.5281169999999999E+001  2.3144590000000004E+001  9.6924999999999994E-001
       Si  1.9214760000000002E+001  1.7035810000000005E+001  9.2310599999999994E+000
       Si  1.9613110000000002E+001  8.8992000000000004E-001  3.1229700000000000E+000
       Si  1.9214320000000004E+001  1.2885100000000003E+000  9.2522300000000008E+000
       Si  1.0928080000000000E+001  8.8995000000000013E-001  3.1441699999999999E+000
       Si  9.1518300000000004E+000  2.3543180000000003E+001  1.3678900000000003E+000
       Si  5.2187099999999997E+000  3.0440100000000001E+000  1.1007529999999999E+001
       Si  9.1734900000000010E+000  1.1327970000000002E+001  4.9008500000000002E+000
       Si  1.3192119999999999E+001  1.5277450000000002E+001  1.0834110000000003E+001
       Si  9.1729299999999991E+000  1.9214410000000004E+001  1.3678699999999999E+000
       Si  8.8995000000000013E-001  1.5259309999999999E+001  7.4757199999999999E+000
       Si  7.3967900000000011E+000  1.5259810000000000E+001  9.6964000000000006E-001
       Si  9.1713699999999996E+000  1.3506360000000001E+001  7.0862499999999997E+000
       Si  7.3878700000000013E+000  1.5281480000000000E+001  5.2902800000000010E+000
       Si  5.2188499999999998E+000  1.9612719999999999E+001  3.1439400000000002E+000
       Si  4.8136700000000010E+000  1.1323359999999999E+001  9.2454000000000001E+000
       Si  5.2186700000000004E+000  1.0928100000000001E+001  3.1229600000000004E+000
       Si  1.3520030000000002E+001  1.1311669999999999E+001  9.2137899999999995E+000
       Si  1.5282750000000002E+001  1.3103730000000001E+001  1.1006990000000000E+001
       Si  1.9214549999999999E+001  9.1730000000000018E+000  1.3679400000000002E+000
       Si  1.5259969999999999E+001  8.9005000000000001E-001  7.4760600000000004E+000
       Si  1.1326650000000001E+001  2.1368220000000004E+001  1.3678699999999999E+000
       Si  1.5280110000000002E+001  1.7440630000000002E+001  1.0989750000000003E+001
       Si  2.3542920000000002E+001  2.1389330000000001E+001  4.8990400000000012E+000
       Si  1.3504519999999999E+001  9.1526200000000006E+000  1.1405570000000003E+001
       Si  1.5281850000000002E+001  7.3949800000000003E+000  5.2965000000000000E+000
       Si  1.3518140000000002E+001  9.1780200000000001E+000  7.0802200000000006E+000
       Si  1.5259820000000001E+001  7.3967599999999996E+000  9.6958999999999995E-001
       Si  1.1436999999999999E+001  1.3526050000000000E+001  9.1762099999999993E+000
       Si  1.0928129999999999E+001  5.2188800000000013E+000  3.1230899999999999E+000
       Si  1.1327180000000000E+001  4.8203200000000006E+000  9.2522800000000007E+000
       Si  1.9613170000000000E+001  5.2185600000000001E+000  3.1441500000000002E+000
       Si  2.1368220000000004E+001  1.9214390000000002E+001  4.8992400000000007E+000
       Si  5.1955400000000012E+000  1.5280030000000000E+001  7.4220500000000005E+000
       Si  2.3144469999999998E+001  3.0648300000000002E+000  1.3185670000000000E+001
       Si  2.1368169999999999E+001  4.8199399999999999E+000  1.9294039999999999E+001
       Si  2.3144490000000005E+001  3.0437400000000001E+000  1.7514420000000001E+001
       Si  2.1389370000000000E+001  4.8198499999999997E+000  2.3622740000000000E+001
       Si  8.8920999999999994E-001  2.3144739999999999E+001  1.5360690000000000E+001
       Si  1.2883400000000003E+000  6.9980599999999997E+000  2.1469060000000002E+001
       Si  8.8971000000000000E-001  7.3966599999999998E+000  1.5339470000000000E+001
       Si  1.7036370000000005E+001  6.9980799999999999E+000  2.1447849999999999E+001
       Si  1.5281200000000000E+001  1.7434370000000001E+001  1.9692950000000003E+001
       Si  6.9940100000000003E+000  2.1374659999999999E+001  1.7118469999999999E+001
       Si  4.8198100000000004E+000  2.1389530000000001E+001  2.3623100000000001E+001
       Si  3.0428600000000001E+000  2.3144970000000001E+001  1.7514700000000001E+001
       Si  4.8183600000000011E+000  2.1368940000000002E+001  1.9295649999999998E+001
       Si  3.0639900000000000E+000  2.3145170000000000E+001  1.3185370000000002E+001
       Si  6.9978600000000002E+000  1.7036330000000000E+001  2.1448699999999999E+001
       Si  7.3969900000000006E+000  8.9080999999999999E-001  1.5339510000000001E+001
       Si  6.9982500000000005E+000  1.2886400000000000E+000  2.1469020000000000E+001
       Si  2.3144310000000004E+001  8.9013000000000009E-001  1.5360570000000001E+001
       Si  2.1367999999999999E+001  2.3543350000000000E+001  1.3584320000000000E+001
       Si  1.7434979999999999E+001  3.0436500000000000E+000  2.3224110000000000E+001
       Si  2.1389099999999999E+001  1.1326660000000000E+001  1.7115710000000000E+001
       Si  8.8959999999999995E-001  1.5281079999999999E+001  2.3224180000000000E+001
       Si  2.1389140000000001E+001  1.9214269999999999E+001  1.3584200000000001E+001
       Si  1.3106560000000002E+001  1.5259370000000002E+001  1.9692119999999999E+001
       Si  1.9612820000000003E+001  1.5259620000000000E+001  1.3185330000000002E+001
       Si  2.1389250000000001E+001  1.3504830000000000E+001  1.9293949999999999E+001
       Si  1.9612960000000001E+001  1.5281020000000000E+001  1.7514309999999998E+001
       Si  2.1368130000000004E+001  1.3504910000000001E+001  2.3622699999999998E+001
       Si  1.7434640000000002E+001  1.9612700000000000E+001  1.5359610000000000E+001
       Si  1.7036059999999999E+001  1.1326620000000002E+001  2.1468440000000001E+001
       Si  1.7433080000000004E+001  1.0927720000000001E+001  1.5339450000000001E+001
       Si  1.2882900000000002E+000  1.1326610000000001E+001  2.1447910000000000E+001
       Si  3.0645799999999999E+000  1.3106130000000000E+001  2.3224229999999999E+001
       Si  6.9842200000000005E+000  9.1393199999999997E+000  1.3586060000000000E+001
       Si  3.0434999999999999E+000  8.9028000000000007E-001  1.9692900000000002E+001
       Si  2.3542610000000000E+001  2.1368310000000005E+001  1.3584350000000001E+001
       Si  3.0433400000000006E+000  1.7434790000000003E+001  2.3224390000000000E+001
       Si  1.1323090000000001E+001  2.1386060000000004E+001  1.7129770000000001E+001
       Si  1.2883899999999999E+000  9.1517499999999998E+000  2.3622810000000001E+001
       Si  3.0633800000000004E+000  7.3961699999999997E+000  1.7515409999999999E+001
       Si  1.2880600000000000E+000  9.1729599999999998E+000  1.9294219999999999E+001
       Si  3.0433600000000003E+000  7.3961199999999998E+000  1.3185780000000001E+001
       Si  2.3542950000000001E+001  1.3504860000000001E+001  2.1447800000000004E+001
       Si  2.3144490000000005E+001  5.2185600000000001E+000  1.5339499999999999E+001
       Si  2.3543020000000002E+001  4.8198900000000009E+000  2.1469000000000001E+001
       Si  7.3970500000000001E+000  5.2179800000000007E+000  1.5361250000000002E+001
       Si  9.1509200000000011E+000  1.9244710000000001E+001  1.7151750000000000E+001
       Si  1.7434410000000000E+001  1.5280240000000001E+001  1.9692340000000002E+001
       Si  7.3966800000000008E+000  3.0443300000000004E+000  1.3185610000000000E+001
       Si  9.1730300000000007E+000  1.2888400000000000E+000  1.9294360000000001E+001
       Si  7.3966399999999997E+000  3.0649800000000003E+000  1.7514600000000002E+001
       Si  9.1519300000000001E+000  1.2884599999999999E+000  2.3622850000000003E+001
       Si  5.2137500000000001E+000  7.3906900000000011E+000  1.5363750000000000E+001
       Si  4.8197400000000004E+000  2.3543710000000001E+001  2.1469550000000002E+001
       Si  5.2173999999999996E+000  2.3146350000000002E+001  1.5339120000000001E+001
       Si  1.3505020000000000E+001  2.3543489999999998E+001  2.1448270000000001E+001
       Si  1.5281310000000001E+001  8.8999000000000006E-001  2.3224250000000005E+001
       Si  1.9214410000000004E+001  2.1389510000000001E+001  1.3584280000000000E+001
       Si  1.5258990000000001E+001  1.3103160000000001E+001  1.9688780000000001E+001
       Si  1.1325480000000001E+001  9.1486600000000013E+000  1.3585390000000000E+001
       Si  1.5260090000000002E+001  5.2185499999999996E+000  2.3224080000000004E+001
       Si  2.3542940000000002E+001  9.1729199999999995E+000  1.7115790000000001E+001
       Si  1.3504940000000001E+001  2.1368350000000000E+001  2.3622830000000000E+001
       Si  1.5282999999999999E+001  1.9613560000000003E+001  1.7515750000000001E+001
       Si  1.3506710000000000E+001  2.1389730000000000E+001  1.9295819999999999E+001
       Si  1.5259370000000002E+001  1.9607820000000000E+001  1.3180930000000000E+001
       Si  1.1326860000000000E+001  1.2884800000000001E+000  2.1447980000000005E+001
       Si  1.0922610000000002E+001  1.7487120000000001E+001  1.5395479999999999E+001
       Si  1.1327400000000001E+001  1.7035910000000005E+001  2.1469280000000001E+001
       Si  1.9613070000000000E+001  1.7434580000000000E+001  1.5360440000000002E+001
       Si  2.1368040000000004E+001  6.9982100000000012E+000  1.7115750000000002E+001
       Si  5.2184600000000003E+000  3.0648800000000000E+000  1.9692740000000001E+001
       Si  9.1525499999999997E+000  1.7032979999999998E+001  1.9296510000000005E+001
       Si  1.0928699999999999E+001  1.5265150000000002E+001  1.7515830000000001E+001
       Si  9.1731599999999993E+000  1.7036280000000005E+001  2.3622990000000001E+001
       Si  1.3106389999999999E+001  1.0917020000000003E+001  1.5367310000000000E+001
       Si  1.3505100000000001E+001  1.9214469999999999E+001  2.1469130000000000E+001
       Si  1.3110860000000001E+001  1.9618630000000000E+001  1.5341440000000000E+001
       Si  4.8197599999999996E+000  1.9214420000000000E+001  2.1448470000000000E+001
       Si  3.0645699999999998E+000  5.2183400000000013E+000  1.9692950000000003E+001
       Si  1.9214179999999999E+001  9.1519500000000011E+000  1.7115629999999999E+001
       Si  1.7036290000000001E+001  9.1730599999999995E+000  2.3622540000000001E+001
       Si  1.5252470000000002E+001  1.0916570000000002E+001  1.7509360000000001E+001
       Si  1.7036970000000000E+001  9.1514900000000008E+000  1.9294420000000002E+001
       Si  1.5278880000000001E+001  1.0928000000000001E+001  1.3187519999999999E+001
       Si  1.9214510000000001E+001  4.8198800000000004E+000  2.1447790000000005E+001
       Si  1.9612600000000000E+001  1.3106000000000000E+001  1.5339270000000003E+001
       Si  1.9214320000000004E+001  1.3504780000000000E+001  2.1468930000000000E+001
       Si  1.0871130000000001E+001  1.3041180000000002E+001  1.5367730000000000E+001
       Si  9.1299600000000005E+000  1.1287070000000000E+001  1.3608670000000002E+001
       Si  5.2183099999999998E+000  1.5259850000000000E+001  2.3224460000000001E+001
       Si  9.1735000000000024E+000  2.3544010000000004E+001  1.7116099999999999E+001
       Si  1.3106410000000000E+001  3.0648399999999998E+000  2.3224150000000002E+001
       Si  9.1627399999999994E+000  6.9905700000000008E+000  1.3583110000000000E+001
       Si  8.8956000000000002E-001  3.0437100000000004E+000  1.9692670000000003E+001
       O  2.4353719999999999E+001  3.5586400000000005E+000  1.2216740000000000E+001
       O  2.0874279999999999E+001  3.5587200000000005E+000  7.9479999999999995E-002
       O  2.0874230000000001E+001  2.5495600000000000E+000  6.1877199999999997E+000
       O  1.8324829999999999E+001  8.6577500000000001E+000  2.6289099999999999E+000
       O  1.5775130000000003E+001  4.0000000000000003E-005  8.7372499999999995E+000
       O  1.8324760000000001E+001  2.1883550000000000E+001  3.6381000000000001E+000
       O  2.5495600000000000E+000 -9.0000000000000006E-005  9.7465499999999992E+000
       O  6.1082400000000012E+000  2.0874310000000001E+001  2.6290100000000001E+000
       O  3.5571100000000007E+000  1.2220910000000000E+001  8.7312300000000018E+000
       O -1.1000000000000002E-004  9.6669599999999996E+000  2.6288900000000002E+000
       O  3.5588100000000003E+000  6.1082600000000005E+000  9.7465100000000007E+000
       O  1.2216490000000000E+001  8.6581499999999991E+000  3.6395599999999999E+000
       O  2.5496000000000003E+000  2.0874289999999998E+001  6.1877599999999999E+000
       O  3.5587300000000006E+000  2.0874279999999999E+001  7.9500000000000015E-002
       O  0.0000000000000000E+000  2.5494699999999999E+000  9.7464900000000014E+000
       O  2.1883540000000000E+001  1.8324739999999998E+001  3.6382099999999999E+000
       O  2.7000000000000000E-004  1.5775040000000002E+001  8.7372300000000003E+000
       O  8.6577800000000025E+000  1.8324990000000003E+001  2.6288600000000004E+000
       O  9.6670300000000005E+000  6.1083600000000002E+000  3.6384500000000002E+000
       O  1.8324720000000003E+001  2.5495600000000000E+000  8.7372099999999993E+000
       O  2.1883479999999999E+001  1.4766030000000001E+001  7.9479999999999995E-002
       O  2.1883459999999999E+001  1.5775190000000002E+001  6.1876699999999998E+000
       O  2.5497900000000002E+000  1.8324770000000001E+001  8.7375399999999992E+000
       O  4.0000000000000003E-005  2.0874269999999999E+001  3.6382300000000005E+000
       O  1.5785900000000002E+001  1.8338049999999999E+001  9.7402499999999996E+000
       O  1.4765760000000000E+001  6.1083300000000005E+000  8.7371499999999997E+000
       O  6.1082500000000000E+000  9.6668400000000005E+000  3.6381500000000004E+000
       O  2.5495399999999999E+000  9.6670200000000008E+000  7.9490000000000005E-002
       O  3.5580799999999999E+000  9.6661699999999993E+000  6.1870500000000010E+000
       O  6.1082799999999997E+000  3.5587100000000005E+000  9.7463800000000003E+000
       O  8.6588499999999993E+000  1.2215500000000000E+001  3.6378000000000004E+000
       O  6.1097200000000003E+000  1.4763310000000002E+001  8.6564899999999998E+000
       O  2.1883469999999999E+001  1.2216510000000000E+001  2.6289899999999999E+000
       O  1.8324960000000001E+001  1.5775450000000001E+001  9.7464400000000015E+000
       O  2.0874260000000003E+001  4.0000000000000003E-005  3.6381999999999999E+000
       O  2.0874320000000001E+001  6.1082299999999998E+000  2.6289899999999999E+000
       O  1.2216410000000000E+001  3.5585700000000000E+000  8.7373399999999997E+000
       O  9.6670099999999994E+000  2.5495399999999999E+000  7.9519999999999993E-002
       O  9.6669800000000006E+000  3.5587000000000000E+000  6.1877599999999999E+000
       O  1.2216470000000001E+001  2.1883479999999999E+001  2.6289899999999999E+000
       O  1.4766019999999999E+001  2.1883489999999998E+001  7.9479999999999995E-002
       O  1.5775050000000002E+001  2.1883939999999999E+001  6.1874100000000007E+000
       O  9.6669800000000006E+000  0.0000000000000000E+000  2.6290400000000003E+000
       O  1.2467309999999999E+001  1.4757379999999999E+001  9.4783399999999993E+000
       O  8.6577300000000026E+000  1.5775270000000003E+001  7.9460000000000003E-002
       O  8.6485900000000022E+000  1.4768070000000002E+001  6.1903699999999997E+000
       O  1.4763300000000001E+001  1.2216890000000001E+001  9.7455900000000000E+000
       O  1.4768710000000002E+001  8.6554599999999997E+000  6.1846400000000008E+000
       O  1.5775180000000002E+001  8.6577199999999994E+000  7.9509999999999997E-002
       O  1.9079200000000000E+001  4.2464599999999999E+000  1.9412700000000001E+000
       O  2.0186560000000000E+001  7.5441000000000003E-001  8.0495699999999992E+000
       O  1.9079180000000001E+001  1.8617400000000000E+000  4.3260100000000001E+000
       O  2.2571280000000002E+001  7.5439999999999996E-001  1.0434279999999999E+001
       O  1.6463039999999999E+001  6.8625699999999998E+000  1.9410600000000002E+000
       O  1.7570670000000000E+001  2.2571800000000000E+001  8.0493900000000007E+000
       O  1.6463039999999999E+001  2.3678680000000000E+001  4.3259100000000004E+000
       O  7.5446000000000002E-001  2.2571359999999999E+001  1.0434150000000002E+001
       O  1.8616600000000001E+000  1.8617800000000002E+000  1.1541630000000000E+001
       O  7.9700300000000013E+000  2.0186550000000004E+001  8.3384000000000003E-001
       O  4.2348800000000004E+000  1.4074210000000001E+001  6.8724299999999996E+000
       O  2.2571200000000001E+001  1.0354750000000001E+001  8.3386000000000005E-001
       O  4.2463699999999998E+000  4.2464100000000000E+000  1.1541600000000001E+001
       O  1.0355689999999999E+001  7.9706500000000000E+000  5.4339100000000009E+000
       O  1.8616000000000001E+000  1.9079230000000003E+001  4.3258999999999999E+000
       O  7.5448000000000004E-001  2.0186660000000000E+001  8.0494400000000006E+000
       O  4.2464300000000010E+000  1.9079200000000000E+001  1.9412700000000001E+000
       O  2.3678599999999999E+001  1.6462990000000001E+001  4.3260399999999999E+000
       O  2.2571240000000003E+001  1.7570350000000001E+001  8.0493900000000007E+000
       O  6.8627000000000002E+000  1.6463020000000000E+001  1.9411700000000001E+000
       O  1.6463049999999999E+001  1.8617500000000000E+000  6.9421799999999996E+000
       O  2.3678560000000004E+001  1.4078270000000000E+001  1.9412800000000001E+000
       O  2.0186699999999998E+001  1.7570309999999999E+001  1.0434250000000002E+001
       O  1.8616699999999999E+000  1.1462160000000003E+001  1.9411000000000000E+000
       O  1.7574510000000000E+001  2.0188780000000001E+001  1.0435020000000000E+001
       O  1.4078310000000000E+001  4.2464300000000010E+000  6.9421799999999996E+000
       O  7.9701700000000004E+000  1.0354810000000001E+001  5.4331400000000007E+000
       O  5.3539500000000011E+000  7.9699200000000010E+000  1.0434150000000002E+001
       O  4.2464599999999999E+000  1.1461650000000001E+001  4.3257100000000008E+000
       O  5.3519100000000002E+000  1.0351520000000002E+001  8.0469799999999996E+000
       O  7.9700199999999999E+000  5.3534300000000012E+000  1.0434070000000002E+001
       O  6.8639900000000003E+000  1.4074339999999999E+001  4.3221999999999996E+000
       O  7.9725200000000003E+000  1.2978249999999999E+001  8.0671999999999997E+000
       O  1.6468380000000000E+001  1.6464780000000001E+001  1.1546410000000000E+001
       O  2.0186610000000002E+001  2.2571269999999998E+001  5.4332700000000003E+000
       O  2.0186509999999998E+001  7.9700199999999999E+000  8.3387999999999995E-001
       O  1.1462080000000002E+001  1.8617700000000001E+000  1.9412199999999999E+000
       O  1.0354720000000000E+001  5.3538600000000010E+000  8.0495099999999997E+000
       O  1.1462090000000000E+001  4.2465099999999998E+000  4.3258999999999999E+000
       O  1.4078270000000000E+001  2.3678599999999999E+001  1.9412400000000003E+000
       O  1.2972610000000000E+001  7.9737700000000009E+000  8.0493600000000001E+000
       O  1.4078200000000002E+001  6.8617999999999997E+000  4.3254700000000001E+000
       O  1.8604600000000000E+000  1.6463519999999999E+001  6.9414899999999999E+000
       O  1.0354760000000002E+001  2.2571259999999999E+001  8.3391000000000004E-001
       O  1.4082900000000000E+001  1.4085580000000000E+001  1.1531639999999999E+001
       O  1.2973180000000001E+001  1.0354329999999999E+001  1.0429090000000000E+001
       O  2.2571220000000000E+001  2.0186489999999999E+001  5.4333499999999999E+000
       O  1.8404040000000002E+001  2.5495800000000002E+000  2.0000000000000001E-004
       O  2.1883440000000004E+001  7.9269999999999993E-002  6.1084800000000001E+000
       O  2.1883410000000001E+001  6.0289700000000002E+000  1.5880000000000002E-001
       O  1.8404050000000005E+001  3.5586400000000005E+000  6.2670599999999999E+000
       O  1.8404120000000002E+001  6.1874500000000001E+000  3.6380800000000004E+000
       O  1.8245460000000001E+001  7.9310000000000005E-002  9.7465100000000007E+000
       O  1.8404060000000001E+001  2.4353719999999999E+001  2.6290700000000000E+000
       O  7.9210000000000003E-002  7.9369999999999996E-002  8.7373500000000011E+000
       O  3.5586700000000002E+000  2.4353740000000002E+001  1.2216550000000000E+001
       O  6.0289599999999997E+000  2.1883430000000004E+001  1.5880000000000002E-001
       O  2.5462799999999999E+000  1.2133430000000002E+001  6.2648500000000009E+000
       O  7.9259999999999997E-002  8.6578200000000010E+000  1.5873999999999999E-001
       O  2.5492900000000001E+000  6.1875299999999998E+000  1.2216410000000000E+001
       O  1.2300190000000001E+001  9.6679499999999994E+000  6.1136100000000004E+000
       O  3.5584800000000003E+000  1.8404779999999999E+001  6.2669400000000008E+000
       O  7.9159999999999994E-002  2.1883430000000004E+001  6.1083800000000004E+000
       O  2.5495800000000002E+000  1.8404030000000002E+001  1.7000000000000001E-004
       O  2.4353640000000002E+001  1.8404000000000000E+001  2.6290800000000001E+000
       O  7.9300000000000009E-002  1.8245259999999998E+001  9.7464300000000001E+000
       O  6.1878200000000012E+000  1.8404150000000001E+001  3.6381500000000004E+000
       O  8.6580100000000009E+000  6.0292000000000012E+000  6.1083400000000001E+000
       O  2.4353700000000000E+001  1.5775170000000001E+001  2.0000000000000001E-004
       O  2.0874379999999999E+001  1.8245520000000003E+001  6.1084800000000001E+000
       O  1.8404550000000000E+001  1.4765500000000001E+001  1.2216680000000000E+001
       O  2.4353520000000000E+001  1.4765920000000001E+001  6.2670599999999999E+000
       O  2.0874340000000004E+001  1.2295769999999999E+001  1.5878999999999999E-001
       O  2.4353710000000000E+001  1.2137180000000003E+001  3.6381199999999998E+000
       O  1.8248750000000005E+001  1.8246250000000000E+001  8.7363700000000009E+000
       O  3.5586700000000002E+000  1.2137190000000000E+001  1.9000000000000001E-004
       O  1.5775410000000003E+001  6.1868299999999996E+000  6.2667900000000003E+000
       O  6.0291100000000011E+000  8.6572400000000016E+000  6.1076800000000011E+000
       O  6.0290100000000004E+000  6.0288500000000003E+000  8.7372800000000002E+000
       O  6.1877199999999997E+000  1.2136410000000001E+001  2.6282300000000003E+000
       O  6.0189599999999999E+000  1.2284870000000000E+001  9.7338900000000006E+000
       O  1.2137180000000003E+001  2.5495600000000000E+000  6.2670599999999999E+000