 # Version information for this restart file 
 # current date 2022-09-04 20:21:56.076
 # current working dir /scratch1/xiutinc/CP2K-96994.pbs02
 # Program compiled at                              Mon Aug  8 12:17:03 EDT 2022
 # Program compiled on                             node0352.palmetto.clemson.edu
 # Program compiled for                               linux-rocky8-ivybridge-gcc
 # Source code revision number                                       git:d8d7100
 &GLOBAL
   PRINT_LEVEL  LOW
   PROJECT_NAME intE02_aq
   RUN_TYPE  GEO_OPT
   WALLTIME 71:45:00
 &END GLOBAL
 &MOTION
   &GEO_OPT
     TYPE  MINIMIZATION
     OPTIMIZER  BFGS
     MAX_ITER  2000
     MAX_DR     5.0000000000000001E-04
     MAX_FORCE     5.0000000000000002E-05
     RMS_DR     5.0000000000000001E-04
     RMS_FORCE     5.0000000000000002E-05
     STEP_START_VAL  47
     &BFGS
       TRUST_RADIUS     2.5000000000000006E-01
     &END BFGS
   &END GEO_OPT
   &CONSTRAINT
     &FIXED_ATOMS
       COMPONENTS_TO_FIX  XYZ
       LIST  1..579 593..664
     &END FIXED_ATOMS
   &END CONSTRAINT
 &END MOTION
 &FORCE_EVAL
   METHOD  QS
   STRESS_TENSOR  ANALYTICAL
   &DFT
     BASIS_SET_FILE_NAME BASIS_file
     POTENTIAL_FILE_NAME POTENTIALS_file
     UKS  F
     MULTIPLICITY  1
     CHARGE  0
     &SCF
       MAX_SCF  500
       EPS_SCF     9.9999999999999995E-07
       SCF_GUESS  RESTART
       &OT  T
         MINIMIZER  CG
         PRECONDITIONER  FULL_ALL
         ENERGY_GAP     1.0000000000000000E-03
       &END OT
       &OUTER_SCF  T
         EPS_SCF     9.9999999999999995E-07
         MAX_SCF  50
       &END OUTER_SCF
     &END SCF
     &QS
       EPS_DEFAULT     1.0000000000000000E-10
       METHOD  GPW
     &END QS
     &MGRID
       NGRIDS  5
       CUTOFF     3.6000000000000000E+02
       REL_CUTOFF     8.0000000000000000E+01
     &END MGRID
     &XC
       DENSITY_CUTOFF     1.0000000000000000E-10
       GRADIENT_CUTOFF     1.0000000000000000E-10
       TAU_CUTOFF     1.0000000000000000E-10
       &XC_FUNCTIONAL  NO_SHORTCUT
         &PBE  T
         &END PBE
       &END XC_FUNCTIONAL
       &VDW_POTENTIAL
         POTENTIAL_TYPE  PAIR_POTENTIAL
         &PAIR_POTENTIAL
           TYPE  DFTD3(BJ)
           PARAMETER_FILE_NAME dftd3.dat
           REFERENCE_FUNCTIONAL PBE
           CALCULATE_C9_TERM  F
         &END PAIR_POTENTIAL
       &END VDW_POTENTIAL
     &END XC
   &END DFT
   &SUBSYS
     &CELL
       A     2.4433000000000000E+01    0.0000000000000000E+00    0.0000000000000000E+00
       B     0.0000000000000000E+00    2.4433000000000000E+01    0.0000000000000000E+00
       C     0.0000000000000000E+00    0.0000000000000000E+00    2.4433000000000000E+01
       MULTIPLE_UNIT_CELL  1 1 1
     &END CELL
     &COORD
Ti    1.0593200000000000E+01    1.5287000000000003E+01    1.2981100000000000E+01
Si    1.9613100000000003E+01    3.0436300000000003E+00    9.6928000000000003E-01
Si    2.1389200000000002E+01    1.2884700000000002E+00    7.0773300000000008E+00
Si    1.9613000000000003E+01    3.0648700000000000E+00    5.2978199999999998E+00
Si    2.1368099999999998E+01    1.2885400000000000E+00    1.1405900000000001E+01
Si    1.7435099999999998E+01    7.3966200000000004E+00    3.1439100000000000E+00
Si    1.7036300000000001E+01    2.3543399999999998E+01    9.2522600000000015E+00
Si    1.7434899999999999E+01    2.3144600000000004E+01    3.1229100000000001E+00
Si    1.2882800000000001E+00    2.3543500000000002E+01    9.2308600000000016E+00
Si    3.0646000000000000E+00    8.9046000000000014E-01    1.1007199999999999E+01
Si    6.9981499999999999E+00    2.1389399999999998E+01    1.3678500000000002E+00
Si    3.0459100000000001E+00    1.3108800000000000E+01    7.4632600000000000E+00
Si    2.3543200000000002E+01    9.1518499999999996E+00    1.3679000000000001E+00
Si    3.0436800000000002E+00    5.2185800000000002E+00    1.1007400000000001E+01
Si    1.1329800000000001E+01    9.1747600000000009E+00    4.9035700000000011E+00
Si    1.2878200000000000E+00    2.1368500000000001E+01    1.1405800000000001E+01
Si    3.0646599999999999E+00    1.9613499999999998E+01    5.2969900000000010E+00
Si    1.2883199999999999E+00    2.1389600000000002E+01    7.0769300000000008E+00
Si    3.0436399999999999E+00    1.9613100000000003E+01    9.6919000000000000E-01
Si    2.3542899999999999E+01    1.2886299999999999E+00    9.2311499999999995E+00
Si    2.3144500000000004E+01    1.7434700000000003E+01    3.1230000000000002E+00
Si    2.3542800000000000E+01    1.7035900000000005E+01    9.2519600000000004E+00
Si    7.3970400000000005E+00    1.7434600000000003E+01    3.1442500000000004E+00
Si    9.1527499999999993E+00    6.9991100000000008E+00    4.8995400000000000E+00
Si    1.7434700000000003E+01    3.0650200000000001E+00    7.4761200000000008E+00
Si    2.3144600000000004E+01    1.5281100000000002E+01    9.6929000000000010E-01
Si    2.1367999999999999E+01    1.7036100000000005E+01    7.0773400000000004E+00
Si    2.3144400000000005E+01    1.5259900000000000E+01    5.2977400000000001E+00
Si    2.1389099999999999E+01    1.7036100000000005E+01    1.1406000000000001E+01
Si    8.8983000000000001E-01    1.0928000000000001E+01    3.1439900000000001E+00
Si    1.2877400000000001E+00    1.9214500000000005E+01    9.2519400000000012E+00
Si    8.8966999999999996E-01    1.9613100000000003E+01    3.1226800000000003E+00
Si    1.7045400000000001E+01    1.9221499999999999E+01    9.2274800000000017E+00
Si    1.5281100000000002E+01    5.2188100000000013E+00    7.4761800000000003E+00
Si    6.9985099999999996E+00    9.1521000000000008E+00    4.8989900000000004E+00
Si    4.8189000000000011E+00    9.1732200000000024E+00    1.1404100000000000E+01
Si    3.0432500000000005E+00    1.0926700000000000E+01    5.2964500000000010E+00
Si    4.8189599999999997E+00    9.1497600000000006E+00    7.0752300000000004E+00
Si    3.0648499999999999E+00    1.0928100000000001E+01    9.6953000000000011E-01
Si    6.9983900000000006E+00    4.8199199999999998E+00    9.2310599999999994E+00
Si    7.3982300000000008E+00    1.3103999999999999E+01    3.1210399999999998E+00
Si    6.9738100000000012E+00    1.3515800000000002E+01    9.2613600000000016E+00
Si    2.3144700000000000E+01    1.3106100000000000E+01    3.1441699999999999E+00
Si    2.1368300000000005E+01    1.1326700000000001E+01    1.3679600000000001E+00
Si    1.7435099999999998E+01    1.5259200000000002E+01    1.1007400000000001E+01
Si    2.1389399999999998E+01    2.3543299999999999E+01    4.8992100000000001E+00
Si    8.8971000000000000E-01    3.0649800000000003E+00    1.1007400000000001E+01
Si    2.1389399999999998E+01    6.9981799999999996E+00    1.3679300000000001E+00
Si    1.3106299999999999E+01    3.0438200000000002E+00    7.4761200000000008E+00
Si    1.0928100000000001E+01    3.0649000000000006E+00    9.6943000000000001E-01
Si    9.1519500000000011E+00    4.8201600000000004E+00    7.0772500000000003E+00
Si    1.0928200000000002E+01    3.0437800000000004E+00    5.2978399999999999E+00
Si    9.1732600000000009E+00    4.8194699999999999E+00    1.1405500000000000E+01
Si    1.3106200000000001E+01    2.3144600000000004E+01    3.1440500000000005E+00
Si    1.3505300000000002E+01    6.9998700000000005E+00    9.2519200000000001E+00
Si    1.3106100000000000E+01    7.3971700000000009E+00    3.1236199999999998E+00
Si    4.8199199999999998E+00    6.9979500000000003E+00    9.2307200000000016E+00
Si    3.0626400000000000E+00    1.7435500000000005E+01    7.4745600000000003E+00
Si    1.9214800000000000E+01    2.1368400000000005E+01    4.8988800000000010E+00
Si    1.7036800000000003E+01    2.1389700000000001E+01    1.1405800000000001E+01
Si    1.5259900000000000E+01    2.3145000000000000E+01    5.2975800000000008E+00
Si    1.7036800000000003E+01    2.1370000000000005E+01    7.0760199999999998E+00
Si    1.5281200000000000E+01    2.3144600000000004E+01    9.6924999999999994E-01
Si    1.9214800000000000E+01    1.7035799999999998E+01    9.2310599999999994E+00
Si    1.9613100000000003E+01    8.8992000000000004E-01    3.1229700000000000E+00
Si    1.9214300000000001E+01    1.2885100000000003E+00    9.2522300000000008E+00
Si    1.0928100000000001E+01    8.8995000000000013E-01    3.1441699999999999E+00
Si    9.1518300000000004E+00    2.3543200000000002E+01    1.3678900000000003E+00
Si    5.2187099999999997E+00    3.0440100000000001E+00    1.1007500000000002E+01
Si    9.1734900000000010E+00    1.1327999999999999E+01    4.9008500000000002E+00
Si    1.3192100000000000E+01    1.5277400000000002E+01    1.0834099999999999E+01
Si    9.1729299999999991E+00    1.9214400000000005E+01    1.3678699999999999E+00
Si    8.8995000000000013E-01    1.5259300000000000E+01    7.4757199999999999E+00
Si    7.3967900000000011E+00    1.5259800000000000E+01    9.6964000000000006E-01
Si    9.1713699999999996E+00    1.3506399999999999E+01    7.0862499999999997E+00
Si    7.3878700000000013E+00    1.5281500000000001E+01    5.2902800000000010E+00
Si    5.2188499999999998E+00    1.9612700000000000E+01    3.1439400000000002E+00
Si    4.8136700000000010E+00    1.1323399999999999E+01    9.2454000000000001E+00
Si    5.2186700000000004E+00    1.0928100000000001E+01    3.1229600000000004E+00
Si    1.3520000000000000E+01    1.1311700000000000E+01    9.2137899999999995E+00
Si    1.5282800000000002E+01    1.3103700000000000E+01    1.1007000000000000E+01
Si    1.9214500000000005E+01    9.1730000000000018E+00    1.3679400000000002E+00
Si    1.5260000000000002E+01    8.9005000000000001E-01    7.4760600000000004E+00
Si    1.1326700000000001E+01    2.1368200000000005E+01    1.3678699999999999E+00
Si    1.5280100000000001E+01    1.7440600000000000E+01    1.0989800000000002E+01
Si    2.3542899999999999E+01    2.1389300000000002E+01    4.8990400000000012E+00
Si    1.3504500000000000E+01    9.1526200000000006E+00    1.1405600000000000E+01
Si    1.5281900000000002E+01    7.3949800000000003E+00    5.2965000000000000E+00
Si    1.3518100000000002E+01    9.1780200000000001E+00    7.0802200000000006E+00
Si    1.5259800000000000E+01    7.3967599999999996E+00    9.6958999999999995E-01
Si    1.1436999999999999E+01    1.3526000000000000E+01    9.1762099999999993E+00
Si    1.0928100000000001E+01    5.2188800000000013E+00    3.1230899999999999E+00
Si    1.1327199999999999E+01    4.8203200000000006E+00    9.2522800000000007E+00
Si    1.9613200000000003E+01    5.2185600000000001E+00    3.1441500000000002E+00
Si    2.1368200000000005E+01    1.9214400000000005E+01    4.8992400000000007E+00
Si    5.1955400000000012E+00    1.5280000000000001E+01    7.4220500000000005E+00
Si    2.3144500000000004E+01    3.0648300000000002E+00    1.3185700000000001E+01
Si    2.1368200000000005E+01    4.8199399999999999E+00    1.9294000000000000E+01
Si    2.3144500000000004E+01    3.0437400000000001E+00    1.7514399999999998E+01
Si    2.1389399999999998E+01    4.8198499999999997E+00    2.3622699999999998E+01
Si    8.8920999999999994E-01    2.3144700000000000E+01    1.5360700000000000E+01
Si    1.2883400000000003E+00    6.9980599999999997E+00    2.1469100000000001E+01
Si    8.8971000000000000E-01    7.3966599999999998E+00    1.5339499999999999E+01
Si    1.7036400000000000E+01    6.9980799999999999E+00    2.1447900000000001E+01
Si    1.5281200000000000E+01    1.7434400000000000E+01    1.9692900000000002E+01
Si    6.9940100000000003E+00    2.1374700000000004E+01    1.7118500000000001E+01
Si    4.8198100000000004E+00    2.1389500000000002E+01    2.3623100000000001E+01
Si    3.0428600000000001E+00    2.3145000000000000E+01    1.7514700000000001E+01
Si    4.8183600000000011E+00    2.1368900000000000E+01    1.9295600000000004E+01
Si    3.0639900000000000E+00    2.3145199999999999E+01    1.3185400000000000E+01
Si    6.9978600000000002E+00    1.7036300000000001E+01    2.1448699999999999E+01
Si    7.3969900000000006E+00    8.9080999999999999E-01    1.5339499999999999E+01
Si    6.9982500000000005E+00    1.2886400000000000E+00    2.1469000000000001E+01
Si    2.3144300000000001E+01    8.9013000000000009E-01    1.5360600000000000E+01
Si    2.1367999999999999E+01    2.3543399999999998E+01    1.3584300000000002E+01
Si    1.7434999999999999E+01    3.0436500000000000E+00    2.3224100000000000E+01
Si    2.1389099999999999E+01    1.1326700000000001E+01    1.7115700000000000E+01
Si    8.8959999999999995E-01    1.5281100000000002E+01    2.3224200000000000E+01
Si    2.1389099999999999E+01    1.9214300000000001E+01    1.3584200000000001E+01
Si    1.3106600000000002E+01    1.5259399999999999E+01    1.9692100000000000E+01
Si    1.9612800000000000E+01    1.5259600000000002E+01    1.3185300000000000E+01
Si    2.1389300000000002E+01    1.3504800000000001E+01    1.9293900000000004E+01
Si    1.9613000000000003E+01    1.5281000000000002E+01    1.7514299999999999E+01
Si    2.1368099999999998E+01    1.3504900000000001E+01    2.3622699999999998E+01
Si    1.7434600000000003E+01    1.9612700000000000E+01    1.5359600000000000E+01
Si    1.7036100000000005E+01    1.1326599999999999E+01    2.1468399999999999E+01
Si    1.7433100000000000E+01    1.0927700000000002E+01    1.5339400000000001E+01
Si    1.2882900000000002E+00    1.1326599999999999E+01    2.1447900000000001E+01
Si    3.0645799999999999E+00    1.3106100000000000E+01    2.3224200000000000E+01
Si    6.9842200000000005E+00    9.1393199999999997E+00    1.3586100000000002E+01
Si    3.0434999999999999E+00    8.9028000000000007E-01    1.9692900000000002E+01
Si    2.3542600000000000E+01    2.1368300000000005E+01    1.3584400000000000E+01
Si    3.0433400000000006E+00    1.7434799999999999E+01    2.3224399999999999E+01
Si    1.1323100000000000E+01    2.1386099999999999E+01    1.7129799999999999E+01
Si    1.2883899999999999E+00    9.1517499999999998E+00    2.3622800000000002E+01
Si    3.0633800000000004E+00    7.3961699999999997E+00    1.7515400000000000E+01
Si    1.2880600000000000E+00    9.1729599999999998E+00    1.9294200000000000E+01
Si    3.0433600000000003E+00    7.3961199999999998E+00    1.3185800000000000E+01
Si    2.3543000000000003E+01    1.3504900000000001E+01    2.1447800000000004E+01
Si    2.3144500000000004E+01    5.2185600000000001E+00    1.5339499999999999E+01
Si    2.3543000000000003E+01    4.8198900000000009E+00    2.1469000000000001E+01
Si    7.3970500000000001E+00    5.2179800000000007E+00    1.5361200000000002E+01
Si    9.1509200000000011E+00    1.9244700000000005E+01    1.7151700000000002E+01
Si    1.7434400000000000E+01    1.5280200000000002E+01    1.9692299999999999E+01
Si    7.3966800000000008E+00    3.0443300000000004E+00    1.3185600000000003E+01
Si    9.1730300000000007E+00    1.2888400000000000E+00    1.9294400000000000E+01
Si    7.3966399999999997E+00    3.0649800000000003E+00    1.7514600000000002E+01
Si    9.1519300000000001E+00    1.2884599999999999E+00    2.3622800000000002E+01
Si    5.2137500000000001E+00    7.3906900000000011E+00    1.5363700000000000E+01
Si    4.8197400000000004E+00    2.3543700000000001E+01    2.1469500000000004E+01
Si    5.2173999999999996E+00    2.3146400000000003E+01    1.5339100000000000E+01
Si    1.3505000000000001E+01    2.3543500000000002E+01    2.1448300000000000E+01
Si    1.5281300000000000E+01    8.8999000000000006E-01    2.3224200000000000E+01
Si    1.9214400000000005E+01    2.1389500000000002E+01    1.3584300000000002E+01
Si    1.5259000000000000E+01    1.3103199999999999E+01    1.9688800000000004E+01
Si    1.1325500000000002E+01    9.1486600000000013E+00    1.3585400000000000E+01
Si    1.5260100000000001E+01    5.2185499999999996E+00    2.3224100000000000E+01
Si    2.3542899999999999E+01    9.1729199999999995E+00    1.7115800000000000E+01
Si    1.3504900000000001E+01    2.1368300000000005E+01    2.3622800000000002E+01
Si    1.5282999999999999E+01    1.9613600000000002E+01    1.7515800000000002E+01
Si    1.3506700000000002E+01    2.1389700000000001E+01    1.9295800000000000E+01
Si    1.5259399999999999E+01    1.9607800000000001E+01    1.3180899999999999E+01
Si    1.1326900000000002E+01    1.2884800000000001E+00    2.1448000000000000E+01
Si    1.0922599999999999E+01    1.7487100000000002E+01    1.5395500000000002E+01
Si    1.1327400000000001E+01    1.7035900000000005E+01    2.1469300000000000E+01
Si    1.9613100000000003E+01    1.7434600000000003E+01    1.5360400000000002E+01
Si    2.1367999999999999E+01    6.9982100000000012E+00    1.7115700000000000E+01
Si    5.2184600000000003E+00    3.0648800000000000E+00    1.9692699999999999E+01
Si    9.1525499999999997E+00    1.7033000000000001E+01    1.9296500000000005E+01
Si    1.0928699999999999E+01    1.5265200000000000E+01    1.7515800000000002E+01
Si    9.1731599999999993E+00    1.7036300000000001E+01    2.3623000000000001E+01
Si    1.3106400000000001E+01    1.0917000000000000E+01    1.5367300000000002E+01
Si    1.3505100000000001E+01    1.9214500000000005E+01    2.1469100000000001E+01
Si    1.3110900000000001E+01    1.9618600000000004E+01    1.5341400000000000E+01
Si    4.8197599999999996E+00    1.9214400000000005E+01    2.1448500000000003E+01
Si    3.0645699999999998E+00    5.2183400000000013E+00    1.9692900000000002E+01
Si    1.9214200000000002E+01    9.1519500000000011E+00    1.7115600000000001E+01
Si    1.7036300000000001E+01    9.1730599999999995E+00    2.3622500000000002E+01
Si    1.5252500000000000E+01    1.0916600000000001E+01    1.7509400000000003E+01
Si    1.7036999999999999E+01    9.1514900000000008E+00    1.9294400000000000E+01
Si    1.5278900000000000E+01    1.0928000000000001E+01    1.3187500000000000E+01
Si    1.9214500000000005E+01    4.8198800000000004E+00    2.1447800000000004E+01
Si    1.9612600000000000E+01    1.3106000000000000E+01    1.5339300000000001E+01
Si    1.9214300000000001E+01    1.3504800000000001E+01    2.1468900000000001E+01
Si    1.0871100000000002E+01    1.3041200000000000E+01    1.5367700000000001E+01
Si    9.1299600000000005E+00    1.1287100000000002E+01    1.3608700000000001E+01
Si    5.2183099999999998E+00    1.5259900000000000E+01    2.3224499999999999E+01
Si    9.1735000000000024E+00    2.3544000000000004E+01    1.7116099999999999E+01
Si    1.3106400000000001E+01    3.0648399999999998E+00    2.3224200000000000E+01
Si    9.1627399999999994E+00    6.9905700000000008E+00    1.3583100000000000E+01
Si    8.8956000000000002E-01    3.0437100000000004E+00    1.9692699999999999E+01
O    2.4353700000000000E+01    3.5586400000000005E+00    1.2216700000000001E+01
O    2.0874300000000002E+01    3.5587200000000005E+00    7.9479999999999995E-02
O    2.0874199999999998E+01    2.5495600000000000E+00    6.1877199999999997E+00
O    1.8324800000000000E+01    8.6577500000000001E+00    2.6289099999999999E+00
O    1.5775100000000002E+01    4.0000000000000003E-05    8.7372499999999995E+00
O    1.8324800000000000E+01    2.1883500000000002E+01    3.6381000000000001E+00
O    2.5495600000000000E+00   -9.0000000000000006E-05    9.7465499999999992E+00
O    6.1082400000000012E+00    2.0874300000000002E+01    2.6290100000000001E+00
O    3.5571100000000007E+00    1.2220900000000002E+01    8.7312300000000018E+00
O   -1.1000000000000002E-04    9.6669599999999996E+00    2.6288900000000002E+00
O    3.5588100000000003E+00    6.1082600000000005E+00    9.7465100000000007E+00
O    1.2216500000000000E+01    8.6581499999999991E+00    3.6395599999999999E+00
O    2.5496000000000003E+00    2.0874300000000002E+01    6.1877599999999999E+00
O    3.5587300000000006E+00    2.0874300000000002E+01    7.9500000000000015E-02
O    0.0000000000000000E+00    2.5494699999999999E+00    9.7464900000000014E+00
O    2.1883500000000002E+01    1.8324700000000000E+01    3.6382099999999999E+00
O    2.7000000000000000E-04    1.5775000000000002E+01    8.7372300000000003E+00
O    8.6577800000000025E+00    1.8325000000000003E+01    2.6288600000000004E+00
O    9.6670300000000005E+00    6.1083600000000002E+00    3.6384500000000002E+00
O    1.8324700000000000E+01    2.5495600000000000E+00    8.7372099999999993E+00
O    2.1883500000000002E+01    1.4766000000000002E+01    7.9479999999999995E-02
O    2.1883500000000002E+01    1.5775200000000000E+01    6.1876699999999998E+00
O    2.5497900000000002E+00    1.8324800000000000E+01    8.7375399999999992E+00
O    4.0000000000000003E-05    2.0874300000000002E+01    3.6382300000000005E+00
O    1.5785900000000002E+01    1.8338000000000001E+01    9.7402499999999996E+00
O    1.4765800000000000E+01    6.1083300000000005E+00    8.7371499999999997E+00
O    6.1082500000000000E+00    9.6668400000000005E+00    3.6381500000000004E+00
O    2.5495399999999999E+00    9.6670200000000008E+00    7.9490000000000005E-02
O    3.5580799999999999E+00    9.6661699999999993E+00    6.1870500000000010E+00
O    6.1082799999999997E+00    3.5587100000000005E+00    9.7463800000000003E+00
O    8.6588499999999993E+00    1.2215500000000000E+01    3.6378000000000004E+00
O    6.1097200000000003E+00    1.4763300000000001E+01    8.6564899999999998E+00
O    2.1883500000000002E+01    1.2216500000000000E+01    2.6289899999999999E+00
O    1.8325000000000003E+01    1.5775400000000001E+01    9.7464400000000015E+00
O    2.0874300000000002E+01    4.0000000000000003E-05    3.6381999999999999E+00
O    2.0874300000000002E+01    6.1082299999999998E+00    2.6289899999999999E+00
O    1.2216400000000000E+01    3.5585700000000000E+00    8.7373399999999997E+00
O    9.6670099999999994E+00    2.5495399999999999E+00    7.9519999999999993E-02
O    9.6669800000000006E+00    3.5587000000000000E+00    6.1877599999999999E+00
O    1.2216500000000000E+01    2.1883500000000002E+01    2.6289899999999999E+00
O    1.4766000000000002E+01    2.1883500000000002E+01    7.9479999999999995E-02
O    1.5775100000000002E+01    2.1883900000000001E+01    6.1874100000000007E+00
O    9.6669800000000006E+00    0.0000000000000000E+00    2.6290400000000003E+00
O    1.2467300000000000E+01    1.4757400000000002E+01    9.4783399999999993E+00
O    8.6577300000000026E+00    1.5775300000000000E+01    7.9460000000000003E-02
O    8.6485900000000022E+00    1.4768100000000000E+01    6.1903699999999997E+00
O    1.4763300000000001E+01    1.2216900000000001E+01    9.7455900000000000E+00
O    1.4768700000000003E+01    8.6554599999999997E+00    6.1846400000000008E+00
O    1.5775200000000000E+01    8.6577199999999994E+00    7.9509999999999997E-02
O    1.9079200000000000E+01    4.2464599999999999E+00    1.9412700000000001E+00
O    2.0186599999999999E+01    7.5441000000000003E-01    8.0495699999999992E+00
O    1.9079200000000000E+01    1.8617400000000000E+00    4.3260100000000001E+00
O    2.2571300000000001E+01    7.5439999999999996E-01    1.0434300000000000E+01
O    1.6463000000000001E+01    6.8625699999999998E+00    1.9410600000000002E+00
O    1.7570699999999999E+01    2.2571800000000000E+01    8.0493900000000007E+00
O    1.6463000000000001E+01    2.3678699999999999E+01    4.3259100000000004E+00
O    7.5446000000000002E-01    2.2571400000000001E+01    1.0434100000000001E+01
O    1.8616600000000001E+00    1.8617800000000002E+00    1.1541600000000001E+01
O    7.9700300000000013E+00    2.0186599999999999E+01    8.3384000000000003E-01
O    4.2348800000000004E+00    1.4074199999999999E+01    6.8724299999999996E+00
O    2.2571200000000001E+01    1.0354699999999999E+01    8.3386000000000005E-01
O    4.2463699999999998E+00    4.2464100000000000E+00    1.1541600000000001E+01
O    1.0355700000000002E+01    7.9706500000000000E+00    5.4339100000000009E+00
O    1.8616000000000001E+00    1.9079200000000000E+01    4.3258999999999999E+00
O    7.5448000000000004E-01    2.0186699999999998E+01    8.0494400000000006E+00
O    4.2464300000000010E+00    1.9079200000000000E+01    1.9412700000000001E+00
O    2.3678599999999999E+01    1.6463000000000001E+01    4.3260399999999999E+00
O    2.2571200000000001E+01    1.7570399999999999E+01    8.0493900000000007E+00
O    6.8627000000000002E+00    1.6463000000000001E+01    1.9411700000000001E+00
O    1.6463000000000001E+01    1.8617500000000000E+00    6.9421799999999996E+00
O    2.3678599999999999E+01    1.4078300000000002E+01    1.9412800000000001E+00
O    2.0186699999999998E+01    1.7570300000000000E+01    1.0434200000000002E+01
O    1.8616699999999999E+00    1.1462199999999999E+01    1.9411000000000000E+00
O    1.7574500000000000E+01    2.0188800000000004E+01    1.0435000000000000E+01
O    1.4078300000000002E+01    4.2464300000000010E+00    6.9421799999999996E+00
O    7.9701700000000004E+00    1.0354800000000001E+01    5.4331400000000007E+00
O    5.3539500000000011E+00    7.9699200000000010E+00    1.0434100000000001E+01
O    4.2464599999999999E+00    1.1461700000000000E+01    4.3257100000000008E+00
O    5.3519100000000002E+00    1.0351500000000000E+01    8.0469799999999996E+00
O    7.9700199999999999E+00    5.3534300000000012E+00    1.0434100000000001E+01
O    6.8639900000000003E+00    1.4074299999999999E+01    4.3221999999999996E+00
O    7.9725200000000003E+00    1.2978199999999999E+01    8.0671999999999997E+00
O    1.6468399999999999E+01    1.6464800000000000E+01    1.1546400000000000E+01
O    2.0186599999999999E+01    2.2571300000000001E+01    5.4332700000000003E+00
O    2.0186499999999999E+01    7.9700199999999999E+00    8.3387999999999995E-01
O    1.1462100000000000E+01    1.8617700000000001E+00    1.9412199999999999E+00
O    1.0354699999999999E+01    5.3538600000000010E+00    8.0495099999999997E+00
O    1.1462100000000000E+01    4.2465099999999998E+00    4.3258999999999999E+00
O    1.4078300000000002E+01    2.3678599999999999E+01    1.9412400000000003E+00
O    1.2972600000000002E+01    7.9737700000000009E+00    8.0493600000000001E+00
O    1.4078200000000002E+01    6.8617999999999997E+00    4.3254700000000001E+00
O    1.8604600000000000E+00    1.6463500000000000E+01    6.9414899999999999E+00
O    1.0354800000000001E+01    2.2571300000000001E+01    8.3391000000000004E-01
O    1.4082900000000000E+01    1.4085599999999999E+01    1.1531600000000001E+01
O    1.2973200000000000E+01    1.0354300000000000E+01    1.0429100000000000E+01
O    2.2571200000000001E+01    2.0186499999999999E+01    5.4333499999999999E+00
O    1.8404000000000000E+01    2.5495800000000002E+00    2.0000000000000001E-04
O    2.1883400000000002E+01    7.9269999999999993E-02    6.1084800000000001E+00
O    2.1883400000000002E+01    6.0289700000000002E+00    1.5880000000000002E-01
O    1.8404100000000000E+01    3.5586400000000005E+00    6.2670599999999999E+00
O    1.8404100000000000E+01    6.1874500000000001E+00    3.6380800000000004E+00
O    1.8245500000000000E+01    7.9310000000000005E-02    9.7465100000000007E+00
O    1.8404100000000000E+01    2.4353700000000000E+01    2.6290700000000000E+00
O    7.9210000000000003E-02    7.9369999999999996E-02    8.7373500000000011E+00
O    3.5586700000000002E+00    2.4353700000000000E+01    1.2216500000000000E+01
O    6.0289599999999997E+00    2.1883400000000002E+01    1.5880000000000002E-01
O    2.5462799999999999E+00    1.2133400000000000E+01    6.2648500000000009E+00
O    7.9259999999999997E-02    8.6578200000000010E+00    1.5873999999999999E-01
O    2.5492900000000001E+00    6.1875299999999998E+00    1.2216400000000000E+01
O    1.2300200000000002E+01    9.6679499999999994E+00    6.1136100000000004E+00
O    3.5584800000000003E+00    1.8404800000000002E+01    6.2669400000000008E+00
O    7.9159999999999994E-02    2.1883400000000002E+01    6.1083800000000004E+00
O    2.5495800000000002E+00    1.8404000000000000E+01    1.7000000000000001E-04
O    2.4353600000000000E+01    1.8404000000000000E+01    2.6290800000000001E+00
O    7.9300000000000009E-02    1.8245300000000000E+01    9.7464300000000001E+00
O    6.1878200000000012E+00    1.8404199999999999E+01    3.6381500000000004E+00
O    8.6580100000000009E+00    6.0292000000000012E+00    6.1083400000000001E+00
O    2.4353700000000000E+01    1.5775200000000000E+01    2.0000000000000001E-04
O    2.0874400000000001E+01    1.8245500000000000E+01    6.1084800000000001E+00
O    1.8404599999999999E+01    1.4765500000000001E+01    1.2216700000000001E+01
O    2.4353500000000000E+01    1.4765900000000000E+01    6.2670599999999999E+00
O    2.0874300000000002E+01    1.2295800000000000E+01    1.5878999999999999E-01
O    2.4353700000000000E+01    1.2137200000000000E+01    3.6381199999999998E+00
O    1.8248799999999999E+01    1.8246200000000002E+01    8.7363700000000009E+00
O    3.5586700000000002E+00    1.2137200000000000E+01    1.9000000000000001E-04
O    1.5775400000000001E+01    6.1868299999999996E+00    6.2667900000000003E+00
O    6.0291100000000011E+00    8.6572400000000016E+00    6.1076800000000011E+00
O    6.0290100000000004E+00    6.0288500000000003E+00    8.7372800000000002E+00
O    6.1877199999999997E+00    1.2136400000000002E+01    2.6282300000000003E+00
O    6.0189599999999999E+00    1.2284900000000000E+01    9.7338900000000006E+00
O    1.2137200000000000E+01    2.5495600000000000E+00    6.2670599999999999E+00
O    1.2137200000000000E+01    3.5586500000000005E+00    2.1000000000000004E-04
O    6.1875200000000010E+00    2.5494599999999998E+00    1.2216700000000001E+01
O    8.6578400000000002E+00    7.9289999999999999E-02    1.5878999999999999E-01
O    1.2137200000000000E+01    2.4353700000000000E+01    3.6381600000000005E+00
O    1.2295999999999999E+01    6.0296200000000004E+00    9.7458200000000001E+00
O    1.2137200000000000E+01    6.1877800000000001E+00    2.6290400000000003E+00
O    1.5775200000000000E+01    2.4353700000000000E+01    2.0000000000000001E-04
O    1.4766100000000002E+01    6.1875900000000010E+00    2.3000000000000003E-04
O    1.8245899999999999E+01    2.0874600000000001E+01    6.1080699999999997E+00
O    1.2295800000000000E+01    2.0874300000000002E+01    1.5876999999999999E-01
O    1.4766100000000002E+01    2.4353800000000000E+01    6.2670399999999997E+00
O    1.4765500000000001E+01    1.8395900000000001E+01    1.2210000000000001E+01
O    9.6641399999999997E+00    1.2297900000000002E+01    6.1107100000000001E+00
O    9.6669400000000003E+00    1.8245500000000000E+01    1.5867999999999999E-01
O    6.1876300000000004E+00    1.4766100000000002E+01    2.9000000000000000E-04
O    6.1203900000000004E+00    1.5779299999999999E+01    6.1846200000000007E+00